NAME          SECO
ROWS
 G  N
 G  P
 G  K
 G  NI-N
 G  AM-N
 G  UR-N
 G  WI-N
 G  CA
 G  CL
 G  FE
 G  MG
 G  S
 G  B
 G  CU
 G  MN
 G  MO
 G  ZN
 E  WT
 N  COST
 N  PRICE
COLUMNS
*234567890123456789012345678901234567890123456789012345678901
    I460000   N             0.460000   UR-N          0.460000   
    I460000   WT            1.000000   COST        160.000000   
    I460000   PRICE       203.300000   SCALE      1000.000000   
    I340000   N             0.340000   NI-N          0.167000   
    I340000   AM-N          0.167000   WT            1.000000   
    I340000   COST        135.000000   PRICE       135.000000   
    I340000   SCALE      1000.000000   
    I210000   N             0.210000   AM-N          0.210000   
    I210000   S             0.240000   WT            1.000000   
    I210000   COST        110.000000   PRICE       139.770000   
    I210000   SCALE      1000.000000   
    I150000   N             0.155000   NI-N          0.155000   
    I150000   CA            0.190000   WT            1.000000   
    I150000   COST        130.000000   PRICE       130.000000   
    I150000   SCALE      1000.000000   
    I050400   N             0.055000   P             0.040000   
    I050400   UR-N          0.005000   WI-N          0.050000   
    I050400   FE            0.030000   WT            1.000000   
    I050400   COST        120.000000   PRICE       120.000000   
    I050400   SCALE      1000.000000   
    I260000   N             0.260000   UR-N          0.060000   
    I260000   WI-N          0.200000   WT            1.000000   
    I260000   COST        375.000000   PRICE       375.000000   
    I260000   SCALE      1000.000000   
    I110000   N             0.110000   UR-N          0.010000   
    I110000   WI-N          0.100000   WT            1.000000   
    I110000   COST        200.000000   PRICE       200.000000   
    I110000   SCALE      1000.000000   
    I380000   N             0.380000   UR-N          0.110000   
    I380000   WI-N          0.270000   WT            1.000000   
    I380000   COST        550.000000   PRICE       550.000000   
    I380000   SCALE      1000.000000   
    I360000   N             0.360000   UR-N          0.360000   
    I360000   S             0.120000   WT            1.000000   
    I360000   COST        370.000000   PRICE       370.000000   
    I360000   SCALE      1000.000000   
    I184600   N             0.180000   P             0.460000   
    I184600   AM-N          0.180000   WT            1.000000   
    I184600   COST        183.000000   PRICE       232.530000   
    I184600   SCALE      1000.000000   
    I123600   N             0.120000   P             0.360000   
    I123600   WT            1.000000   COST        146.000000   
    I123600   PRICE       185.510000   SCALE      1000.000000   
    I105000   N             0.100000   P             0.500000   
    I105000   AM-N          0.100000   WT            1.000000   
    I105000   COST        176.000000   PRICE       176.000000   
    I105000   SCALE      1000.000000   
    I004600   P             0.460000   WT            1.000000   
    I004600   COST        140.000000   PRICE       177.890000   
    I004600   SCALE      1000.000000   
    I002000   P             0.200000   CA            0.200000   
    I002000   S             0.110000   WT            1.000000   
    I002000   COST         80.000000   PRICE        80.000000   
    I002000   SCALE      1000.000000   
    I000062   K             0.620000   CL            0.510000   
    I000062   WT            1.000000   COST         90.000000   
    I000062   PRICE        90.000000   SCALE      1000.000000   
    I000050   K             0.500000   S             0.170000   
    I000050   WT            1.000000   COST        240.000000   
    I000050   PRICE       320.000000   SCALE      1000.000000   
    I000022   K             0.220000   MG            0.110000   
    I000022   S             0.220000   WT            1.000000   
    I000022   COST        110.300000   PRICE       140.150000   
    I000022   SCALE      1000.000000   
    I130044   N             0.130000   K             0.440000   
    I130044   NI-N          0.130000   WT            1.000000   
    I130044   COST        277.000000   PRICE       277.000000   
    I130044   SCALE      1000.000000   
    MEZ MIN   FE            0.180000   CU            0.010000   
    MEZ MIN   MN            0.070000   MO            0.020000   
    MEZ MIN   ZN            0.070000   WT            1.000000   
    MEZ MIN   COST          0.200000   PRICE         0.200000   
    MEZ MIN   SCALE         1.000000   
    I14B000   B             0.143000   WT            1.000000   
    I14B000   COST        420.000000   PRICE       420.000000   
    I14B000   SCALE      1000.000000   
    I55MN00   MN            0.550000   WT            1.000000   
    I55MN00   COST        240.000000   PRICE       240.000000   
    I55MN00   SCALE      1000.000000   
    I50CU00   CU            0.500000   WT            1.000000   
    I50CU00   COST        900.000000   PRICE       900.000000   
    I50CU00   SCALE      1000.000000   
    I20S36Z   S             0.200000   ZN            0.360000   
    I20S36Z   WT            1.000000   COST        400.000000   
    I20S36Z   PRICE       400.000000   SCALE      1000.000000   
    I80ZN00   ZN            0.800000   WT            1.000000   
    I80ZN00   COST        245.000000   PRICE       245.000000   
    I80ZN00   SCALE      1000.000000   
    NAMO39    MO            0.390000   WT            1.000000   
    NAMO39    COST       1500.000000   PRICE      1500.000000   
    NAMO39    SCALE      1000.000000   
    IVLITE    WT            1.000000   COST         50.000000   
    IVLITE    PRICE        50.000000   SCALE      1000.000000   
    RELLENO   WT            1.000000   COST          0.000000   
    RELLENO   PRICE         0.000000   SCALE         1.336800   
    PRODUCTO  WT           -1.000000   COST          0.000000   
    PRODUCTO  PRICE         0.000000   SCALE         1.000000   
*234567890123456789012345678901234567890123456789012345678901
RHS
RANGES
ENDATA
